NAME: example
TYPE: TSP
COMMENT: BMTSP example for 10 cities + depot
DIMENSION: 11
EDGE_WEIGHT_TYPE: EUC_2D
NODE_COORD_SECTION
1 50 50
2 60 40
3 65 45
4 55 65
5 35 40
6 50 30
7 45 45
8 55 25
9 40 60
10 65 55
11 30 50
EOF
